benchmarks_vrp/CMT4/tsp_classic/CMT4_5.vrp
NAME: CMT4_5
TYPE: CVRP
COMMENT: 1028.42 - Cluster Nr.5
DIMENSION: 15
CAPACITY: 200
EDGE_WEIGHT_TYPE: EUC_2D
NODE_COORD_TYPE: TWOD_COORDS
NODE_COORD_SECTION: 
3 45 20
8 44 17
7 55 20
13 42 7
4 59 15
9 46 10
15 53 12
2 39 10
14 45 10
6 49 11
5 35 35
1 46 13
10 55 5
11 47 16
12 51 21
DEPOT_SECTION: 
5
-1
DEMAND_SECTION: 
1 8
5 0
13 5
8 9
4 14
7 19
15 6
12 5
2 10
11 25
9 23
14 18
10 29
3 11
6 18
EOF
