benchmarks_vrp/CMT4/tsp_classic/CMT4_5.tour
NAME: CMT4_5 solution
TYPE: TOUR
TOUR_SECTION:
5 3 8 11 1 2 13 14 9 6 15 10 4 7 12 -1
-1
EOF